LAMMPS (2 Jul 2021)
# 1. INITIALIZATION
#allows pair, bond, bending and dihedral interactions
atom_style full

  # periodic (video game) boundaries in all cartesian directions
boundary p p p

  # uses real units (instead of units based on pair potential parameters).  List of units used in manual
units real

###########
# 2. ATOM DEFINITION
##########

   ##
   # Read in data from starting configuration file
   ##

#read_data lammps-AT-config

 #use to restart
read_restart RESTART
Reading restart file ...
  restart file = 2 Jul 2021, LAMMPS = 2 Jul 2021
  restoring atom style full from restart
  orthogonal box = (-31.074150 -31.074150 -31.074150) to (31.074150 31.074150 31.074150)
  2 by 2 by 4 MPI processor grid
  restoring pair style lj/cut/coul/long from restart
  restoring bond style harmonic from restart
  16000 atoms
  8000 bonds
Finding 1-2 1-3 1-4 neighbors ...
  special bond factors lj:    0        0        0       
  special bond factors coul:  0        0        0       
     1 = max # of 1-2 neighbors
     0 = max # of 1-3 neighbors
     0 = max # of 1-4 neighbors
     1 = max # of special neighbors
  special bonds CPU = 0.002 seconds
  read_restart CPU = 0.006 seconds

   ##
   # Specify the nature of the bond interactions
   ##

bond_style	harmonic   			     #Sets the bond type as harmonic
angle_style	none	         		     #S2 had no angles
dihedral_style	none				     #S2 has no dihedrals (quadruplets)
improper_style	none				     #S2 has no improper quadruplets

bond_coeff	1 5000.00 1.000                      #Oxygen-Hydrogen bond parameters (1~ang)
		  				     #NOTE: harmonic moduli do not matter, since the rigid bonds are preserved by SHAKE

mass 1   15.999
mass 2   2.016

   ##
   # Specify the nature of intermolecular pair interactions
   ##

pair_style	lj/cut/coul/long 10.0 10.0             #LJ with 10.0 cutoff, Coulomb with 10.0 cutoff
pair_modify     tail yes			     #Analytic Long-range Tail corrections, for the LJ interactions
kspace_style	pppm 1.0e-4                          #PPPM Ewald, relative error in forces
                                                     #kspace uses tinfoil/conducting boundary conditions by default

pair_coeff      1 1 0.15539421659476232 3.16555789   #Oxygen-Oxygen LJ(dispersion) parameters
pair_coeff	* 2 0.0000 0.0000		     #Hydrogen-Hydrogen LJ(disperson) parameters (none for S2 model)


################
# 3.  Simulation Settings
###############

 #ensures that atoms on the same molecule are excluded from pair interactions (necessary for United atom near neighbors)
neighbor 	2.0 bin
neigh_modify    every 1 delay 0 check yes
#communicate single cutoff 50.0 vel yes

reset_timestep 0

#SHAKE Parameters to preserve bondlengths
fix		1 all shake 0.0001 20 0 b 1 # a 1      #0.0001 = accuracy tolerance of SHAKE
    8000 = # of size 2 clusters
       0 = # of size 3 clusters
       0 = # of size 4 clusters
       0 = # of frozen angles
  find clusters CPU = 0.001 seconds
		      	    	      	      	     #20 = max number of iterations in each SHAKE solution
		      	    	      	      	     #0 = print SHAKE statistics every "this many" timesteps (0 = never)
		      	    	      	      	     #b 1 = 1 bond type
		      	    	      	      	     #a 1 = 1 angle typ



velocity all create 298 4928459  dist gaussian
fix 2 all nvt temp 298.0 298.0 50.0
Resetting global fix info from restart file:
  fix style: nvt, fix ID: 2

timestep 2.0



#Output Style
variable        Nevery equal 20                      #Specify the distance (in timesteps) between samples for computing ensemble aver$
                                                     #  (Interval between samples in a block)
variable        Nrepeat equal 50                     #Specify the number of samples per output  of thermodynamic averages
                                                     #  (Samples per block output)
variable        Nfreq equal ${Nevery}*${Nrepeat}     #Specify the dump interval (in timesteps)
variable        Nfreq equal 20*${Nrepeat}     
variable        Nfreq equal 20*50     
                                                     #  (Some people call these blocks)
variable        PotentialEnergy equal epair          #Call the intermolecular potential energy $PotentialEnergy
variable        Pressure equal press                 #Call the pressure $Pressure
variable        Temperature equal temp               #Call the instantaneous temperature $Temperature
variable        Density equal density                #Call the instantaneous density $Density (will not change for NVT)

fix             3 all ave/time ${Nevery} ${Nrepeat} ${Nfreq} v_Temperature v_PotentialEnergy v_Pressure file ave.out format %9g
fix             3 all ave/time 20 ${Nrepeat} ${Nfreq} v_Temperature v_PotentialEnergy v_Pressure file ave.out format %9g
fix             3 all ave/time 20 50 ${Nfreq} v_Temperature v_PotentialEnergy v_Pressure file ave.out format %9g
fix             3 all ave/time 20 50 1000 v_Temperature v_PotentialEnergy v_Pressure file ave.out format %9g
thermo          1000                                 #Specify the interval between screen output of thermodynamic averages
thermo_style    custom step temp density epair press #Format for screen output of thermodynamics
                                                     #  (MD step, temperature, internal energy, pressure)


dump gigo all atom 250 dump.cords_xyz.dat
dump_modify gigo scale no
dump vfgigo all custom 250 dump.velo.dat id vx vy vz fx fy fz

#Run it!
run             500000
PPPM initialization ...
  using 12-bit tables for long-range coulomb (../kspace.cpp:340)
  G vector (1/distance) = 0.23806735
  grid = 24 24 24
  stencil order = 5
  estimated absolute RMS force accuracy = 0.038268089
  estimated relative force accuracy = 0.00011524321
  using double precision KISS FFT
  3d grid and FFT values/proc = 3179 1152
All restart file global fix info was re-assigned
Neighbor list info ...
  update every 1 steps, delay 0 steps, check yes
  max neighbors/atom: 2000, page size: 100000
  master list distance cutoff = 12
  ghost atom cutoff = 12
  binsize = 6, bins = 11 11 11
  1 neighbor lists, perpetual/occasional/extra = 1 0 0
  (1) pair lj/cut/coul/long, perpetual
      attributes: half, newton on
      pair build: half/bin/newton
      stencil: half/bin/3d
      bin: standard
Per MPI rank memory allocation (min/avg/max) = 11.31 | 11.32 | 11.34 Mbytes
Step Temp Density E_pair Press 
       0          298   0.99697795   -29567.063     6546.964 
    1000    297.08229   0.99697795   -29537.492    6083.7706 
    2000    301.59673   0.99697795   -29552.392    6155.4323 
    3000    299.05068   0.99697795   -29673.681    6122.6667 
    4000    298.74753   0.99697795   -29742.891     6120.692 
    5000    298.87384   0.99697795   -29752.754    6029.1872 
    6000    299.03062   0.99697795   -29768.456    6010.7013 
    7000    302.69937   0.99697795   -29607.934    6092.9367 
    8000     295.2499   0.99697795    -29739.51    6117.8383 
    9000    293.13716   0.99697795   -29705.583    6146.9741 
   10000    301.23392   0.99697795   -29658.264    6066.6561 
   11000    297.69406   0.99697795   -29552.083    6044.8362 
   12000     298.3408   0.99697795   -29641.774    6235.0235 
   13000    299.26698   0.99697795   -29755.235    5982.9362 
   14000    301.99239   0.99697795   -29697.434    6222.0588 
   15000    298.36491   0.99697795   -29566.626    6153.7248 
   16000    299.42328   0.99697795   -29742.334    6028.2197 
   17000    300.63054   0.99697795   -29717.516    6029.4465 
   18000    298.09741   0.99697795   -29814.692    6036.4854 
   19000    295.70448   0.99697795   -29752.595     6006.499 
   20000    295.09097   0.99697795    -29662.97     5950.241 
   21000    299.68496   0.99697795   -29558.206    6155.4007 
   22000    299.43289   0.99697795   -29740.026    6041.6958 
   23000    297.24514   0.99697795   -29727.189    6131.7494 
   24000    299.95841   0.99697795   -29626.182    6070.0392 
   25000    298.52685   0.99697795   -29520.659    6152.9965 
   26000    298.45214   0.99697795   -29598.185    6137.0657 
   27000    298.20628   0.99697795   -29626.833    6219.1483 
   28000    296.92978   0.99697795   -29656.248    6094.3644 
   29000     295.9422   0.99697795   -29744.944    6018.4965 
   30000    296.45913   0.99697795   -29705.136    5997.7635 
   31000    294.10993   0.99697795   -29835.023    6066.8178 
   32000    298.76762   0.99697795   -29711.054    5979.8082 
   33000    295.83615   0.99697795   -29578.903    6109.2511 
   34000    296.35497   0.99697795    -29563.49    6177.6395 
   35000    299.32342   0.99697795   -29698.237    6083.1948 
   36000    297.65754   0.99697795   -29543.003    6151.1552 
   37000     295.5449   0.99697795   -29577.995    6047.0794 
   38000    297.48058   0.99697795   -29804.331    6080.6293 
   39000    299.87778   0.99697795    -29764.85    5970.4205 
   40000    298.14942   0.99697795   -29819.955    6066.6753 
   41000    294.70584   0.99697795   -29595.858    6232.7551 
   42000    300.01695   0.99697795   -29569.213    6081.5775 
   43000    293.90555   0.99697795   -29794.467    6058.5892 
   44000    296.36884   0.99697795   -29662.848    6171.7907 
   45000    298.20815   0.99697795   -29622.629    6103.8692 
   46000    299.75781   0.99697795    -29682.13     6083.372 
   47000     292.7532   0.99697795   -29491.226    6202.3499 
   48000    297.96781   0.99697795   -29713.432    6125.9859 
   49000    299.84555   0.99697795   -29575.626    6175.7444 
   50000    298.77581   0.99697795   -29672.196    6089.7178 
   51000    296.85209   0.99697795   -29597.781    6155.4444 
   52000    295.79101   0.99697795   -29704.992    6133.8425 
   53000      295.037   0.99697795   -29586.303    6199.1804 
   54000    299.04212   0.99697795    -29627.71    6006.7336 
   55000    298.51759   0.99697795   -29610.048    6074.9533 
   56000    300.78426   0.99697795   -29833.235    5976.0327 
   57000    296.33378   0.99697795   -29624.864    6155.0049 
   58000    293.02031   0.99697795   -29581.256    6203.1018 
   59000    299.19926   0.99697795   -29580.112    6142.4461 
   60000     299.8971   0.99697795   -29658.166    6075.7401 
   61000    300.24182   0.99697795   -29656.121     6201.148 
   62000    298.19608   0.99697795   -29558.635    6186.7056 
   63000    300.65877   0.99697795   -29746.049    6087.8081 
   64000    298.21404   0.99697795   -29764.954    5833.5025 
   65000    298.85188   0.99697795   -29673.129    6131.2635 
   66000    302.60618   0.99697795   -29669.889    5988.5138 
   67000     296.5402   0.99697795   -29749.623    6182.0771 
   68000    298.64166   0.99697795   -29572.657    6195.2813 
   69000    297.08338   0.99697795   -29587.809    6099.3395 
   70000    296.68528   0.99697795   -29685.415    6018.6549 
   71000    298.30611   0.99697795   -29536.278    6080.7606 
   72000    295.57598   0.99697795   -29702.021    6122.7211 
   73000    296.36618   0.99697795   -29746.568    5969.2425 
   74000    298.35761   0.99697795    -29716.92    6085.8982 
   75000    295.42314   0.99697795   -29579.402    6139.5105 
   76000    299.15003   0.99697795   -29532.627    6116.1267 
   77000    298.19894   0.99697795   -29741.306    6158.0557 
   78000     298.9551   0.99697795   -29745.879     6092.699 
   79000     299.2641   0.99697795   -29694.292      6072.81 
   80000    300.33603   0.99697795   -29702.535    6098.4326 
   81000      298.953   0.99697795   -29601.769    6023.5739 
   82000    296.10934   0.99697795   -29521.946    6140.1725 
   83000    296.10516   0.99697795   -29615.224    6042.6332 
   84000    300.74087   0.99697795   -29649.724     6116.297 
   85000    295.39599   0.99697795   -29754.965    6043.7997 
   86000     297.4676   0.99697795   -29692.144    6074.6627 
   87000    298.11861   0.99697795    -29581.16    6222.5671 
   88000    301.59416   0.99697795   -29680.812     6205.778 
   89000    301.54922   0.99697795   -29631.105    6080.9362 
   90000    296.51419   0.99697795   -29707.452    6093.1469 
   91000    292.56386   0.99697795   -29616.633    6196.7666 
   92000    294.05908   0.99697795   -29627.543    6166.6871 
   93000    301.83513   0.99697795   -29588.497    6307.1299 
   94000    296.89583   0.99697795   -29701.641    6151.5947 
   95000    296.20789   0.99697795   -29625.732    6245.9207 
   96000    295.63586   0.99697795   -29701.657    6177.3733 
   97000    298.41031   0.99697795   -29696.102    6164.3407 
   98000    296.46179   0.99697795   -29535.272     6217.961 
   99000     298.5173   0.99697795   -29742.128    6089.5388 
  100000    297.77853   0.99697795   -29655.811     6095.606 
  101000    297.32776   0.99697795   -29663.005    6128.8595 
  102000    297.91212   0.99697795   -29674.613    6071.0473 
  103000    298.32966   0.99697795   -29669.804    6107.2418 
  104000    295.19189   0.99697795   -29709.864    6124.4116 
  105000    299.55046   0.99697795   -29627.693    6264.4529 
  106000    298.64469   0.99697795    -29624.06    6061.3168 
  107000    300.16192   0.99697795   -29721.362     6140.525 
  108000     297.0445   0.99697795   -29491.907    6132.2953 
  109000     300.7757   0.99697795   -29821.378    5988.5635 
  110000    295.53639   0.99697795   -29743.238    6113.1076 
  111000    296.10565   0.99697795   -29663.026    6116.3642 
  112000    299.43268   0.99697795    -29597.87    6108.1759 
  113000    299.66055   0.99697795   -29628.629    6114.6844 
  114000    297.23733   0.99697795   -29639.979    6025.0645 
  115000    299.86348   0.99697795   -29773.602    6108.6047 
  116000    294.82923   0.99697795   -29618.846    5997.8973 
  117000    300.75852   0.99697795    -29626.09    6075.5152 
  118000     293.9393   0.99697795   -29761.329    5929.7123 
  119000     299.2236   0.99697795   -29670.641     6081.336 
  120000    296.99868   0.99697795   -29716.007    6106.4003 
  121000    296.72922   0.99697795   -29714.084    6002.6388 
  122000    296.38666   0.99697795   -29685.402    6154.1755 
  123000    300.54075   0.99697795   -29774.358    6008.6585 
  124000    296.45864   0.99697795   -29605.941    6247.7763 
  125000    295.69998   0.99697795   -29785.024     5895.083 
  126000    297.47886   0.99697795   -29674.917    6041.8414 
  127000    300.70505   0.99697795    -29664.89     6112.728 
  128000    296.86015   0.99697795   -29659.319    6135.3003 
  129000    297.30679   0.99697795   -29575.467    6177.4539 
  130000    299.33252   0.99697795   -29739.797    6008.3451 
  131000    298.17957   0.99697795   -29603.633    6143.1174 
  132000     298.7801   0.99697795   -29762.253    5977.0465 
  133000     297.4147   0.99697795   -29639.398    6079.6979 
  134000    296.89392   0.99697795   -29560.943    6077.5702 
  135000    297.02901   0.99697795   -29646.771    6134.8332 
  136000    300.12838   0.99697795   -29669.499    6136.1745 
  137000    297.64526   0.99697795   -29638.871    6097.0672 
  138000    295.10057   0.99697795   -29734.999    5906.2125 
  139000    299.98976   0.99697795    -29631.21    6201.4179 
  140000    293.37901   0.99697795   -29669.664    6083.2831 
  141000     300.0856   0.99697795   -29668.169    6196.1382 
  142000    296.61514   0.99697795   -29737.616    6070.3596 
  143000    298.24938   0.99697795   -29595.883     6110.395 
  144000    295.09531   0.99697795   -29679.093    6025.7726 
  145000    294.00898   0.99697795   -29661.744    5974.8606 
  146000    296.37355   0.99697795   -29825.911    5972.1625 
  147000    299.59001   0.99697795   -29701.794    6088.1353 
  148000    295.22875   0.99697795   -29450.906    6191.4331 
  149000    296.75286   0.99697795     -29715.8    6073.0823 
  150000    297.93293   0.99697795   -29738.613    6053.3821 
  151000    297.42081   0.99697795   -29567.555    6140.3162 
  152000    295.78236   0.99697795   -29674.513    6105.9466 
  153000    296.92078   0.99697795   -29490.795    6206.4411 
  154000    297.80058   0.99697795   -29492.407    6210.7192 
  155000    299.65256   0.99697795   -29686.458    6102.2544 
  156000    295.62691   0.99697795   -29515.836    6304.2977 
  157000    298.43174   0.99697795   -29774.064    6055.9488 
  158000    299.16273   0.99697795   -29616.642     6138.728 
  159000    295.74179   0.99697795   -29666.379    6077.0339 
  160000    295.23989   0.99697795   -29754.129     5920.045 
  161000    298.53487   0.99697795   -29566.014    6182.4108 
  162000    299.60762   0.99697795   -29586.426    6134.5646 
  163000    301.35285   0.99697795   -29668.548    6085.8943 
  164000    294.94694   0.99697795   -29634.104    6079.7902 
  165000    295.89763   0.99697795   -29628.976    6124.8918 
  166000     297.2896   0.99697795   -29684.979     6129.154 
  167000    303.13986   0.99697795   -29718.555    6148.2162 
  168000      296.892   0.99697795    -29574.15    6249.7563 
  169000    298.82735   0.99697795   -29694.492    6062.3792 
  170000    293.59078   0.99697795   -29655.055     6000.404 
  171000    299.07862   0.99697795   -29626.818    6116.0054 
  172000    299.78215   0.99697795   -29735.393    6054.4518 
  173000    298.65204   0.99697795   -29675.966    6050.0331 
  174000    297.12975   0.99697795   -29517.763    6248.3658 
  175000    296.11299   0.99697795   -29647.679    6016.5407 
  176000    295.63144   0.99697795   -29615.012    6109.2682 
  177000    294.54928   0.99697795    -29749.45    6107.2073 
  178000    297.15714   0.99697795   -29623.257    6075.6547 
  179000    296.34067   0.99697795   -29549.759    6269.6086 
  180000    298.04233   0.99697795   -29595.169     6135.131 
  181000    302.66273   0.99697795   -29501.153    6269.6468 
  182000    294.48646   0.99697795   -29701.946    6129.3552 
  183000    298.04341   0.99697795   -29642.233    6007.0238 
  184000    298.67048   0.99697795     -29861.1    5960.5545 
  185000    295.87478   0.99697795   -29662.679    6071.5812 
  186000    297.93545   0.99697795   -29663.528    6097.3604 
  187000    299.27142   0.99697795   -29705.721    6062.1562 
  188000    296.11672   0.99697795   -29740.032    5974.3184 
  189000    298.60978   0.99697795   -29586.169    6176.1577 
  190000    298.99425   0.99697795   -29497.817    6202.2278 
  191000    295.97767   0.99697795   -29746.636    5927.3948 
  192000    295.34354   0.99697795   -29579.344    6154.7565 
  193000    298.12812   0.99697795   -29700.661    6002.0556 
  194000    296.88699   0.99697795    -29653.51      6179.44 
  195000    297.56916   0.99697795   -29599.899    6110.5224 
  196000    297.64741   0.99697795   -29673.733    5950.5125 
  197000    297.20089   0.99697795    -29585.51    6252.7188 
  198000    298.76667   0.99697795   -29499.567    6179.0797 
  199000    297.56868   0.99697795   -29639.315    6020.3336 
  200000    296.65649   0.99697795   -29739.904    5983.9767 
  201000    298.60903   0.99697795   -29556.673    6101.8097 
  202000    297.12831   0.99697795    -29525.37    6236.4321 
  203000    298.69133   0.99697795    -29568.37    6156.1888 
  204000    296.20255   0.99697795   -29721.809    6216.7151 
  205000    298.50677   0.99697795   -29734.351    6095.4331 
  206000    296.51888   0.99697795   -29723.088    6115.7349 
  207000    300.71307   0.99697795   -29794.365    6111.7036 
  208000    298.00053   0.99697795   -29732.187    6032.0868 
  209000    299.34255   0.99697795    -29761.38    6050.7511 
  210000    299.32175   0.99697795   -29700.098    6256.7547 
  211000      296.669   0.99697795   -29593.773    6033.8821 
  212000    297.81875   0.99697795   -29691.768    6159.1454 
  213000    297.42933   0.99697795   -29736.095    6148.1831 
  214000    299.45962   0.99697795   -29774.213     6075.788 
  215000    291.52984   0.99697795   -29660.816      6018.18 
  216000     300.7108   0.99697795   -29591.455    6072.9495 
  217000    301.98927   0.99697795   -29680.901    6131.9568 
  218000    295.23402   0.99697795   -29631.979    6026.2346 
  219000    297.00037   0.99697795   -29691.027    6093.0813 
  220000    295.86542   0.99697795   -29573.425    6000.3629 
  221000     297.4941   0.99697795   -29672.073    6031.2115 
  222000    296.38845   0.99697795   -29693.562    6058.1557 
  223000    300.13396   0.99697795   -29665.006    6109.2375 
  224000    297.04257   0.99697795    -29631.32    6067.8454 
  225000    301.03875   0.99697795   -29734.489    6060.5009 
  226000    295.66321   0.99697795    -29501.59    6127.0538 
  227000    292.45843   0.99697795   -29709.594    6029.9913 
  228000    296.63301   0.99697795   -29792.574    6011.7717 
  229000    295.89061   0.99697795   -29685.329     6115.843 
  230000    295.10399   0.99697795   -29663.904    6135.2061 
  231000    296.85537   0.99697795   -29575.254      6319.16 
  232000    300.18925   0.99697795   -29764.613    6043.1122 
  233000    298.54045   0.99697795   -29728.503    6098.9429 
  234000    299.67441   0.99697795    -29632.67    6200.9664 
  235000    297.31031   0.99697795   -29609.551    6299.6676 
  236000    300.05116   0.99697795   -29728.185    5970.4585 
  237000    298.00127   0.99697795   -29803.019    6063.2986 
  238000     301.3801   0.99697795   -29766.895    6114.3655 
  239000    298.07786   0.99697795   -29567.858    6209.7606 
  240000    296.20471   0.99697795   -29692.251    6064.4531 
  241000    295.75698   0.99697795   -29534.981    6153.8503 
  242000    304.17596   0.99697795   -29694.931    6093.4672 
  243000    295.32865   0.99697795   -29627.333    6137.3995 
  244000    300.00023   0.99697795   -29621.571    6177.9592 
  245000    299.96461   0.99697795   -29722.952    6107.7969 
  246000    297.74143   0.99697795   -29726.599    6002.7655 
  247000    298.66289   0.99697795   -29666.149    6160.3476 
  248000    300.56622   0.99697795   -29648.145    6031.2007 
  249000     298.4964   0.99697795   -29701.319    6006.2085 
  250000    301.34504   0.99697795   -29658.284    6272.6834 
  251000    298.30026   0.99697795   -29606.203    6138.1329 
  252000    296.65501   0.99697795   -29532.116    6215.8982 
  253000    295.50834   0.99697795   -29660.313    6049.8242 
  254000    296.15697   0.99697795   -29656.891    6103.6579 
  255000    295.43252   0.99697795   -29575.501    6164.6826 
  256000    296.15527   0.99697795   -29620.659      6095.68 
  257000    296.59213   0.99697795   -29569.318    6143.4378 
  258000    295.29045   0.99697795    -29679.38     5984.571 
  259000    300.20384   0.99697795   -29557.892     6030.261 
  260000    300.29858   0.99697795   -29601.878    6141.1945 
  261000    299.38734   0.99697795   -29640.359    6180.7877 
  262000    299.10989   0.99697795     -29796.9    5973.1853 
  263000    297.60681   0.99697795   -29632.729    6163.1574 
  264000     298.6729   0.99697795   -29661.909     6057.077 
  265000     297.7998   0.99697795    -29660.53    6044.5495 
  266000    297.66286   0.99697795   -29543.284     6164.723 
  267000    297.40933   0.99697795   -29635.404    6119.1874 
  268000    297.83761   0.99697795   -29693.194    6029.7827 
  269000    298.39384   0.99697795   -29670.073    6162.1045 
  270000    297.00248   0.99697795    -29790.51    6028.7783 
  271000    298.04023   0.99697795    -29750.63    5926.0746 
  272000    296.23927   0.99697795   -29758.726    6054.3223 
  273000    295.65005   0.99697795   -29743.183    5969.7735 
  274000    291.95082   0.99697795   -29585.093    6308.4823 
  275000    301.17393   0.99697795   -29589.764    6197.2541 
  276000    295.51371   0.99697795   -29557.415    6120.1848 
  277000    296.21124   0.99697795   -29814.722    5943.0916 
  278000    297.90296   0.99697795   -29841.722    5924.5894 
  279000    303.51357   0.99697795   -29774.325    6017.2032 
  280000    299.11902   0.99697795   -29710.762    6164.1525 
  281000     299.0452   0.99697795   -29624.631    6122.2686 
  282000    297.89685   0.99697795   -29579.576    6133.2436 
  283000    300.48499   0.99697795   -29696.393    6000.3106 
  284000    297.70743   0.99697795   -29484.752    6088.0054 
  285000    295.07553   0.99697795   -29621.585    6002.0288 
  286000    299.07524   0.99697795   -29681.074     6097.823 
  287000    301.95299   0.99697795   -29604.027    6092.6084 
  288000    299.01878   0.99697795   -29616.477    6002.8443 
  289000    300.54986   0.99697795   -29667.166    6150.1933 
  290000    302.34828   0.99697795   -29621.353    6100.6444 
  291000    299.56893   0.99697795   -29699.345    6056.9911 
  292000    298.95877   0.99697795   -29607.069    6232.6327 
  293000    299.56329   0.99697795    -29771.43    6072.3016 
  294000    293.53706   0.99697795   -29646.335     6053.269 
  295000    294.43925   0.99697795   -29476.907    6332.8319 
  296000    298.15788   0.99697795   -29646.044    6047.8323 
  297000    301.04546   0.99697795   -29679.671    6091.1808 
  298000     296.4263   0.99697795   -29543.277    6128.2129 
  299000    298.39072   0.99697795   -29695.217    6093.3845 
  300000    300.64959   0.99697795   -29487.781      6261.33 
  301000    301.36107   0.99697795   -29655.509    6169.3755 
  302000    302.03054   0.99697795    -29651.61     6169.924 
  303000    299.35328   0.99697795   -29540.005    6121.4832 
  304000    295.07667   0.99697795   -29749.832    6016.8063 
  305000    299.49858   0.99697795   -29676.196    6064.0132 
  306000    300.13494   0.99697795   -29780.171    6022.3049 
  307000    294.47331   0.99697795   -29629.092      6124.74 
  308000    296.92413   0.99697795   -29571.948    6176.0845 
  309000     296.6075   0.99697795   -29669.965    6250.7622 
  310000    301.88907   0.99697795   -29571.064    6167.3105 
  311000     292.1294   0.99697795   -29721.423    5960.8035 
  312000    301.99665   0.99697795   -29662.464    6070.1736 
  313000    296.14362   0.99697795   -29520.746    6194.9301 
  314000    297.29376   0.99697795   -29634.858    6069.3693 
  315000    298.36107   0.99697795   -29653.838    6023.8358 
  316000    296.19614   0.99697795    -29694.03    6090.6999 
  317000    295.59836   0.99697795   -29651.962    6017.1431 
  318000    297.47877   0.99697795   -29636.931    6179.5106 
  319000    295.85318   0.99697795    -29706.49    5971.5786 
  320000    297.44979   0.99697795   -29714.684    6175.7411 
  321000    298.51784   0.99697795   -29677.676    6013.5142 
  322000    299.76885   0.99697795   -29711.895    6147.9616 
  323000    299.29653   0.99697795   -29730.392    5913.2667 
  324000    303.45056   0.99697795   -29733.333    5902.1644 
  325000    303.18743   0.99697795   -29777.697     6007.619 
  326000    301.63096   0.99697795   -29717.336    6190.1904 
  327000    297.86652   0.99697795   -29694.059    6149.1772 
  328000    299.66358   0.99697795   -29635.007    6040.4981 
  329000    297.39145   0.99697795   -29531.644    6089.1493 
  330000    297.10473   0.99697795   -29486.783    6277.6977 
  331000    296.57406   0.99697795   -29737.498    6028.2728 
  332000    300.12567   0.99697795   -29739.646    6121.6622 
  333000    299.51037   0.99697795   -29776.082    5969.7835 
  334000    299.69073   0.99697795    -29555.71    6080.6764 
  335000    300.21631   0.99697795   -29547.133    6197.5545 
  336000    298.07331   0.99697795   -29783.764    6077.5231 
  337000    295.62735   0.99697795   -29789.967    6083.1158 
  338000    297.10162   0.99697795   -29748.648    6054.4431 
  339000    294.79877   0.99697795   -29647.809    6041.4783 
  340000    304.81435   0.99697795   -29588.447    6014.4993 
  341000    297.13896   0.99697795   -29632.418    6076.9581 
  342000    296.76682   0.99697795   -29636.557    6149.1084 
  343000    295.05966   0.99697795   -29597.137    6273.8392 
  344000     299.8255   0.99697795   -29741.079    6019.6511 
  345000    298.91908   0.99697795   -29763.747    6082.1952 
  346000    300.28108   0.99697795   -29773.638    6176.8302 
  347000    297.06526   0.99697795   -29583.019     6164.298 
  348000    297.02806   0.99697795   -29619.069    6187.5558 
  349000    296.63491   0.99697795   -29499.843     6123.305 
  350000    295.91515   0.99697795   -29633.867    6036.8424 
  351000    296.55569   0.99697795   -29768.368    6073.6032 
  352000    296.64851   0.99697795   -29654.475    6111.0748 
  353000    299.67901   0.99697795   -29649.183    6093.2349 
  354000    296.57986   0.99697795   -29697.257    6127.1939 
  355000    298.25795   0.99697795   -29540.552    6169.9682 
  356000     295.9103   0.99697795   -29707.361    6020.3142 
  357000     296.5612   0.99697795   -29591.433    6114.0131 
  358000    299.53024   0.99697795   -29636.015    6124.8163 
  359000    296.59572   0.99697795   -29734.995    6069.1494 
  360000    296.57017   0.99697795   -29594.852    6096.9813 
  361000    298.23962   0.99697795   -29497.936    6208.3126 
  362000    299.01667   0.99697795   -29670.428    6046.7685 
  363000    294.88536   0.99697795   -29538.711    6218.1672 
  364000    295.63582   0.99697795   -29701.035    6059.8303 
  365000     294.3982   0.99697795   -29589.895    6127.1611 
  366000    297.09359   0.99697795   -29602.379     6144.571 
  367000    295.49995   0.99697795   -29633.715    6027.1013 
  368000    295.74213   0.99697795   -29716.936    5983.3252 
  369000    299.36942   0.99697795   -29603.399    6186.9882 
  370000     294.2045   0.99697795   -29576.992    6251.1438 
  371000    297.50342   0.99697795   -29578.678    6173.4451 
  372000    300.25215   0.99697795   -29616.995    6230.0336 
  373000    297.80929   0.99697795   -29742.857    6022.8264 
  374000     299.0276   0.99697795   -29723.711    6127.1752 
  375000    300.08683   0.99697795   -29561.226    6039.3594 
  376000    298.53892   0.99697795   -29546.918    6235.3757 
  377000    298.19634   0.99697795   -29499.263    6248.6909 
  378000    297.67226   0.99697795   -29683.331    5975.4966 
  379000    300.69687   0.99697795   -29715.865    6038.6431 
  380000    300.74521   0.99697795   -29656.799    6121.6922 
  381000     295.8786   0.99697795   -29780.588    5882.4491 
  382000    297.24506   0.99697795   -29620.845    6042.6595 
  383000     296.7433   0.99697795   -29837.405    6022.4706 
  384000    299.04603   0.99697795   -29689.414    6018.6453 
  385000    296.38358   0.99697795   -29620.667    6074.8515 
  386000    302.37227   0.99697795   -29506.514    6221.0166 
  387000    299.98144   0.99697795    -29561.16    6283.4171 
  388000    297.44735   0.99697795   -29665.933     6193.507 
  389000    300.65927   0.99697795   -29535.741    6227.5446 
  390000    301.14875   0.99697795   -29702.997    5961.2044 
  391000    296.38951   0.99697795   -29529.825    6152.1424 
  392000    299.48805   0.99697795   -29739.712    6054.0329 
  393000    296.36588   0.99697795    -29715.99    6092.1815 
  394000    301.07094   0.99697795   -29511.111     6111.288 
  395000    299.23953   0.99697795   -29576.661    6133.3128 
  396000    295.45067   0.99697795   -29641.549    6140.2657 
  397000    302.08423   0.99697795    -29696.66    5979.5814 
  398000    296.20189   0.99697795   -29518.392    6156.6197 
  399000     298.5524   0.99697795   -29658.518    6173.3962 
  400000    300.11256   0.99697795   -29697.026    6176.1796 
  401000    302.56486   0.99697795   -29658.542    6171.8216 
  402000    297.95547   0.99697795   -29696.488    6110.8988 
  403000    299.88845   0.99697795   -29655.245    6062.9013 
  404000    297.52198   0.99697795   -29558.142    6202.6753 
  405000    297.36878   0.99697795   -29653.614    6073.0082 
  406000    297.85327   0.99697795   -29687.749    6195.0043 
  407000    295.18599   0.99697795   -29751.056    5971.1177 
  408000    299.16315   0.99697795   -29874.439    5852.8767 
  409000    297.58751   0.99697795   -29602.071     6065.775 
  410000    297.57332   0.99697795    -29660.97    6084.2699 
  411000    297.91721   0.99697795   -29703.395    5978.3603 
  412000    300.60762   0.99697795   -29625.819    6033.8595 
  413000    296.17375   0.99697795   -29726.749     5949.332 
  414000    298.10177   0.99697795   -29542.644    6249.9635 
  415000    296.64634   0.99697795   -29592.945    6228.9552 
  416000     295.6127   0.99697795   -29533.543    6089.7128 
  417000    297.84224   0.99697795   -29685.928     6050.541 
  418000    300.32084   0.99697795   -29634.783     6172.226 
  419000    295.97555   0.99697795    -29626.67    6091.0253 
  420000     298.0784   0.99697795   -29687.528    6179.6533 
  421000    298.91125   0.99697795   -29817.156    5991.0563 
  422000     298.5751   0.99697795   -29678.086    6029.6376 
  423000    298.21318   0.99697795   -29642.409    6053.8133 
  424000    299.10417   0.99697795   -29663.999     6080.992 
  425000    296.44024   0.99697795    -29666.61    5977.9642 
  426000    299.71533   0.99697795     -29664.3    6085.5158 
  427000      300.491   0.99697795   -29768.728    6026.8398 
  428000    300.68702   0.99697795   -29402.955    6379.2925 
  429000    299.69883   0.99697795   -29622.743    6182.3465 
  430000    299.61657   0.99697795   -29706.434    6055.5956 
  431000    297.09998   0.99697795   -29543.786    6191.3922 
  432000     297.1516   0.99697795   -29634.322    6042.1063 
  433000    298.52254   0.99697795   -29706.085    6033.7567 
  434000    294.72294   0.99697795   -29668.628    6058.7693 
  435000    298.30721   0.99697795   -29723.259    6004.3169 
  436000    298.79874   0.99697795   -29794.932    5945.1697 
  437000    294.91448   0.99697795   -29501.621    6202.8568 
  438000    300.04565   0.99697795   -29705.596    6050.7001 
  439000    298.03364   0.99697795   -29506.362    6153.2951 
  440000    300.24088   0.99697795   -29675.425    6051.3972 
  441000    296.29924   0.99697795   -29581.204    6190.1437 
  442000    299.27081   0.99697795   -29753.717    6184.2835 
  443000    301.06621   0.99697795   -29687.733     5990.913 
  444000     299.0678   0.99697795   -29604.594    6082.6976 
  445000    292.53613   0.99697795   -29642.181    5959.4399 
  446000    296.99978   0.99697795   -29528.304    6269.3724 
  447000    298.63102   0.99697795   -29664.194    6081.5938 
  448000    300.99583   0.99697795   -29699.821    6059.1393 
  449000    297.77475   0.99697795   -29758.988    6041.2476 
  450000    298.88829   0.99697795    -29678.31    6020.4235 
  451000    302.18266   0.99697795    -29639.82    6213.4251 
  452000    298.14875   0.99697795    -29753.13    6014.9571 
  453000    297.80565   0.99697795   -29638.867    5995.8398 
  454000    297.94476   0.99697795   -29484.502    6194.5249 
  455000    299.42894   0.99697795   -29670.567    6116.1948 
  456000    299.15751   0.99697795   -29725.236    5915.5689 
  457000    297.26388   0.99697795   -29642.635    6027.0479 
  458000    297.33671   0.99697795   -29593.346    6136.3587 
  459000    297.41828   0.99697795   -29693.847    6026.8823 
  460000    295.01299   0.99697795   -29634.348    6126.5217 
  461000    294.94349   0.99697795   -29795.371    5992.0309 
  462000    296.48025   0.99697795   -29735.823    6078.0291 
  463000    303.55262   0.99697795   -29663.614    6080.7267 
  464000    296.19847   0.99697795   -29610.337    6239.3834 
  465000    297.33947   0.99697795    -29588.49    6145.6047 
  466000    292.70102   0.99697795   -29538.622    6312.0209 
  467000    302.65526   0.99697795   -29652.861    6167.8482 
  468000    297.37534   0.99697795   -29811.357    5912.2221 
  469000    298.86746   0.99697795   -29550.981    6238.8571 
  470000     299.4991   0.99697795   -29657.475    6164.2236 
  471000    295.83743   0.99697795    -29591.63    6053.9381 
  472000    300.12883   0.99697795   -29609.657    6114.3644 
  473000    295.46658   0.99697795   -29781.782    6068.5649 
  474000    299.88182   0.99697795   -29560.959    6237.9634 
  475000    295.70338   0.99697795   -29534.762    6250.6759 
  476000    294.97666   0.99697795   -29754.934    6063.0088 
  477000    300.75202   0.99697795   -29769.149    6208.3638 
  478000    298.52403   0.99697795   -29644.635    5998.4042 
  479000     295.1441   0.99697795   -29648.369    6118.6585 
  480000    296.89342   0.99697795   -29839.245    5960.3956 
  481000    297.35898   0.99697795   -29713.297    6091.4459 
  482000    296.60761   0.99697795   -29722.503    6086.1755 
  483000    298.10201   0.99697795   -29577.489    6185.2107 
  484000    298.62637   0.99697795   -29579.328     6177.209 
  485000    294.90145   0.99697795   -29639.435    6149.4995 
  486000    296.17428   0.99697795   -29686.626    6130.6991 
  487000     300.3691   0.99697795   -29678.984    5950.3378 
  488000    298.70749   0.99697795   -29601.358    6187.3247 
  489000    295.53786   0.99697795   -29636.194    6200.1841 
  490000    297.75902   0.99697795   -29693.391    5966.6422 
  491000    296.38335   0.99697795   -29740.034     5971.043 
  492000    296.73137   0.99697795   -29585.992    6159.0105 
  493000    299.64535   0.99697795   -29513.575    6258.2333 
  494000     299.2316   0.99697795    -29646.23    6153.5748 
  495000    298.77278   0.99697795   -29816.527    6125.5724 
  496000     296.2705   0.99697795    -29629.79    6063.7346 
  497000    295.81397   0.99697795   -29573.488    6008.2834 
  498000    301.83038   0.99697795   -29652.059     6108.481 
  499000    299.92904   0.99697795   -29601.094    6093.0035 
  500000    292.42841   0.99697795   -29787.313    6050.2211 
Loop time of 2591.03 on 16 procs for 500000 steps with 16000 atoms

Performance: 33.346 ns/day, 0.720 hours/ns, 192.973 timesteps/s
98.6% CPU use with 16 MPI tasks x no OpenMP threads

MPI task timing breakdown:
Section |  min time  |  avg time  |  max time  |%varavg| %total
---------------------------------------------------------------
Pair    | 1646.6     | 1720.8     | 1790.9     | 149.4 | 66.41
Bond    | 0.034852   | 0.046129   | 0.082661   |   5.5 |  0.00
Kspace  | 312.96     | 387.15     | 469.35     | 320.2 | 14.94
Neigh   | 238.44     | 240        | 242.48     |  10.6 |  9.26
Comm    | 113.08     | 121.76     | 127.57     |  38.7 |  4.70
Output  | 7.8542     | 8.4491     | 9.0355     |  12.6 |  0.33
Modify  | 92.525     | 95.442     | 99.289     |  21.3 |  3.68
Other   |            | 17.39      |            |       |  0.67

Nlocal:        1000.00 ave        1029 max         973 min
Histogram: 2 1 2 3 2 1 0 2 0 3
Nghost:        6999.62 ave        7042 max        6926 min
Histogram: 1 0 1 1 1 2 2 4 3 1
Neighs:        240799.0 ave      257221 max      227753 min
Histogram: 2 2 0 3 3 1 3 1 0 1

Total # of neighbors = 3852788
Ave neighs/atom = 240.79925
Ave special neighs/atom = 1.0000000
Neighbor list builds = 43136
Dangerous builds = 0

write_restart FINALCONFIG
System init for write_restart ...
PPPM initialization ...
  using 12-bit tables for long-range coulomb (../kspace.cpp:340)
  G vector (1/distance) = 0.23806735
  grid = 24 24 24
  stencil order = 5
  estimated absolute RMS force accuracy = 0.038268089
  estimated relative force accuracy = 0.00011524321
  using double precision KISS FFT
  3d grid and FFT values/proc = 3179 1152
Total wall time: 0:43:11
